120
150
52
58
40
55
53
59
59
55
55
57
50
42
45
43
50
55
40
58
41
54
52
44
54
54
48
58
59
49
55
50
50
44
44
49
45
51
42
42
53
49
60
48
40
50
53
54
50
48
43
52
48
59
43
57
52
50
45
59
55
48
48
50
59
56
52
47
56
49
52
54
49
43
56
41
59
48
47
51
56
60
43
46
55
45
50
48
53
59
49
46
48
45
47
55
43
58
44
52
54
49
47
40
55
51
59
50
40
47
54
58
44
41
52
49
58
60
45
54
40
51
